p edge 28 42
e 1 8
e 1 17
e 1 23
e 2 27
e 2 5
e 2 20
e 3 13
e 3 19
e 3 25
e 4 5
e 4 12
e 4 21
e 5 21
e 6 10
e 6 15
e 6 18
e 7 28
e 7 9
e 7 21
e 8 14
e 8 23
e 9 17
e 9 14
e 10 27
e 10 26
e 11 22
e 11 25
e 11 18
e 12 15
e 12 22
e 13 28
e 13 24
e 14 16
e 15 24
e 16 26
e 16 19
e 17 28
e 18 26
e 19 27
e 20 25
e 20 24
e 22 23
